
Gurobi 10.0.1 (linux64) logging started Sun Nov 26 15:40:18 2023

Set parameter LogFile to value "ArtificialInstance/ExperimentV2/S3T3K1/AdRo/gurobiDoRo59.txt"
Gurobi Optimizer version 10.0.1 build v10.0.1rc0 (linux64)

CPU model: AMD EPYC 7H12 64-Core Processor, instruction set [SSE2|AVX|AVX2]
Thread count: 128 physical cores, 128 logical processors, using up to 32 threads

Academic license 656792 - for non-commercial use only - registered to b.___@student.vu.nl
Optimize a model with 3055 rows, 2885 columns and 11417 nonzeros
Model fingerprint: 0xac4c59e3
Variable types: 1 continuous, 2884 integer (2884 binary)
Coefficient statistics:
  Matrix range     [1e+00, 4e+01]
  Objective range  [1e+00, 2e+01]
  Bounds range     [1e+00, 1e+00]
  RHS range        [1e+00, 1e+00]
Presolve removed 1234 rows and 955 columns
Presolve time: 0.03s
Presolved: 1821 rows, 1930 columns, 7435 nonzeros
Variable types: 1 continuous, 1929 integer (1929 binary)
Found heuristic solution: objective 147.6336932

Root relaxation: objective 5.776002e+01, 408 iterations, 0.01 seconds (0.00 work units)

    Nodes    |    Current Node    |     Objective Bounds      |     Work
 Expl Unexpl |  Obj  Depth IntInf | Incumbent    BestBd   Gap | It/Node Time

     0     0   57.76002    0    4  147.63369   57.76002  60.9%     -    0s
H    0     0                      57.7600166   57.76002  0.00%     -    0s
     0     0   57.76002    0    4   57.76002   57.76002  0.00%     -    0s

Explored 1 nodes (408 simplex iterations) in 0.06 seconds (0.04 work units)
Thread count was 32 (of 128 available processors)

Solution count 2: 57.76 147.634 

Optimal solution found (tolerance 1.00e-04)
Best objective 5.776001658999e+01, best bound 5.776001658999e+01, gap 0.0000%
